100
32
27
11
3
18
25
5
5
29
6
29
26
6
26
18
12
4
14
10
24
7
16
28
14
7
26
21
20
14
32
1
17
10
7
6
21
17
3
23
1
4
17
32
26
27
32
12
32
32
22
20
7
1
17
18
27
22
17
4
25
25
32
2
20
29
30
27
26
19
17
32
20
8
28
11
30
5
27
2
5
20
3
17
10
20
28
26
24
29
27
17
9
23
27
28
9
28
22
8
2
20